     30      2      6    270     11
     40     44
      4      3     11     15     28     17     13     25     12     11     26     29     11     10     13     25     14     28     26      9      4     14     26     20      5      8     27     12     27     26     16     19      9     17      7     10      8     15     27     11      1     13     26     16     11      9      3      4     20     28     21      2     27      8     10     16      8      1     15      8      4      6     10     19     18     21     23      6     19      3      5      7     26     17     25     17      2     29      0      6     20     27      0     25     15     16     10     21     18     12     19      9      5      4     22      0     17      7     12      9     17      5     28      2     26     29     15     25      5      2     13      7     11     23     17      8     20     13     10     12     20     15     17      7     16      4     13     24     20     29     16     10     23      2     26     15     29     20     17     28     29     13     24     22     22     14     11      1     19     16      1      9     28     18     13     10     18     23     26      4     28      6     27      9     17     26      0     23     15     20      1     26     13      7      9      6     14     16      2      5
     -4    -19    -10     47     -6     71     87     37    -16     55      0     42    -16     70     42     87     17     24     17     91     44     -9     51     82     19     -1     66    -11     55     14     70     -4     62     16     40     87     -8      7    -14     51
      2     14     12	    147     55      6      6      5      0     81    -19      0      0      0     26      0      0      0      0     71      0      0      0      0      0      0      0      0      0    115     81      0      0      0      0      0    108      0
      1     15     14	    114     66      2      3      1     81      0      0      0      0      0      0      0      0     51    -17      0      0     15      0      0      0      0      0      0      0      0      0      0      0      0     79      0      0     89
      2     13     11	    161     52      3      4      4    -19      0      0    -26    -23      0     73      0      0      0      0      0      0     75      0      0      0      0     51      0      0      0      0      0      0      0     75      0      0     -5
      6     15     13	    421    143      6      6      5      0      0    -26      0      0      0    177     89      0     24      0      0      0     80      0      0      0      0      2      0      0      0     53      0      0      0      0      0    191      0
      3     10     12	    374     55      4      4      9      0      0    -23      0      0      0      0      0      0      0      0      0      0     27      0      0      0     38      0      0     67      0      0      0      0      0    173      0      0      0
      4     10     12	    122     78      4      4     10      0      0      0      0      0      0      0      0      0      0     52     64     92     55     77     66      0      0      0      0      0      0      0      0      0      0      0      0      0      0
      2     13     14	    326     69      6      6      9     26      0     73    177      0      0      0      0      0      0      0      0     53      0      0      0      0      0      0      0      0      0      0      0      0    124     89      0     80      0
      4     10     11	    168     79      4      4      4      0      0      0     89      0      0      0      0      0      0      0      0    -16      0      0      0      0     93      0      0      0      0      0     73      0      0      0      0      0    115
      6     12     14	    444    217      6      6      8      0      0      0      0      0      0      0      0      0      0      0    165      0      0      0    171      0      0      0      0      0      0      0      0      0      0     -4      0      0      0
      1     13     12	    245     96      1      2      5      0     51      0     24      0      0      0      0      0      0      0      0      0      0     67      0     -1     46      0      0     36    178      0      0    -29      0     75      0      0      0
      2     14     11	    350    189      2      5      4      0    -17      0      0      0     52      0      0      0      0      0      0      0    131      0      0      0      0      0     71      0      0      0      0      0     81      0      0      0      0
      5     11     13	    272    168      6      6      1     71      0      0      0      0     64      0      0    165      0      0      0      0      0      9      0     51      0     96      0      0      0      0      0    -30      0      0      0      0      0
      4     10     12	    432    129      5      6     10      0      0      0      0      0     92     53    -16      0      0      0      0      0      0     32      0      0     61      0      0    111      0      0      0      0      0     65      0      0      0
      4     11     10	    214     59      6      6      5      0     15     75     80     27     55      0      0      0      0    131      0      0      0      0      0     22      0      0      0      0      0      0      0    163      0      0      0      0     -1
      1     10     11	    106     61      4      5      5      0      0      0      0      0     77      0      0      0     67      0      9     32      0      0     26     65      0      0      0      0      0    -15      0      0      0      0      0      0      0
      1     14     11	    475    176      4      4      6      0      0      0      0      0     66      0      0    171      0      0      0      0      0     26      0      0      0      0      0      0      0      0      0      0      0      0      0    196      0
      6     12     15	    158     89      6      6     10      0      0      0      0      0      0      0      0      0     -1      0     51      0     22     65      0      0     -6      0      0      0      0      0      0      0      0      7      0     57      0
      6     12     13	    310    144      6      6      7      0      0      0      0     38      0      0     93      0     46      0      0     61      0      0      0     -6      0      0      0      0      0      0      0      0      0     11      0     15    189
      4     10     12	    227    154      4      4      3      0      0     51      2      0      0      0      0      0      0      0     96      0      0      0      0      0      0      0      0      0      0      0      0      0      0      0      0      0      0
      2     13     15	    293     57      4      6      9      0      0      0      0      0      0      0      0      0      0     71      0      0      0      0      0      0      0      0      0      0      0    133      0     72      0    -30    180    -25      0
      4     15     11	    280    100      5      6      4      0      0      0      0     67      0      0      0      0     36      0      0    111      0      0      0      0      0      0      0      0    160      0      0      0      0      0      0      0    205
      2     12     12	    241    155      4      5     10    115      0      0      0      0      0      0      0      0    178      0      0      0      0      0      0      0      0      0      0    160      0      0      0      0      0    148      0     87      0
      5     12     10	    291    107      6      6     10     81      0      0     53      0      0      0      0      0      0      0      0      0      0    -15      0      0      0      0    133      0      0      0      0    140     41      0      0      0      0
      2     14     11	    474    312      5      6      2      0      0      0      0      0      0      0     73      0      0      0      0      0      0      0      0      0      0      0      0      0      0      0      0      0      0    115      0      0      0
      5     10     15	    216     77      6      6      3      0      0      0      0      0      0      0      0      0    -29      0    -30      0    163      0      0      0      0      0     72      0      0    140      0      0      0      0      0      0      0
      3     13     12	    184    126      6      6      2      0      0      0      0      0      0    124      0      0      0     81      0      0      0      0      0      0      0      0      0      0      0     41      0      0      0      0      0      0    -18
      3     14     10	    247    116      5      6      4      0     79     75      0    173      0     89      0     -4     75      0      0     65      0      0      0      7     11      0    -30      0    148      0    115      0      0      0     -8      0      0
      6     15     10	    275    146      6      6      7      0      0      0      0      0      0      0      0      0      0      0      0      0      0      0      0      0      0      0    180      0      0      0      0      0      0     -8      0    -18      0
      3     14     15	    417    284      5      6     10    108      0      0    191      0      0     80      0      0      0      0      0      0      0      0    196     57     15      0    -25      0     87      0      0      0      0      0    -18      0      0
      3     12     12	    264    111      5      5     10      0     89     -5      0      0      0      0    115      0      0      0      0      0     -1      0      0      0    189      0      0    205      0      0      0      0    -18      0      0      0      0